NAME: tsp30_2
COMMENT: 30-tsp problem (Padberg/Rinaldi)
TYPE: TSP
DIMENSION: 30
EDGE_WEIGHT_TYPE : EUC_2D
NODE_COORD_SECTION
1 3 21
2 5 38
3 32 17
4 14 6
5 8 40
6 6 25
7 6 34
8 34 38
9 2 20
10 15 0
11 30 39
12 29 16
13 21 39
14 4 23
15 25 33
16 30 10
17 34 28
18 30 8
19 23 4
20 34 36
21 33 35
22 15 23
23 32 18
24 25 15
25 1 27
26 13 2
27 21 17
28 29 37
29 30 8
30 9 37
